column=6;
row=6;
max=4;
left=[0, 2, 2, 0, 3, 4];
right=[1, 4, 3, 0, 2, 2];
top=[2, 3, 1, 2, 4, 0];
bottom=[4, 1, 3, 0, 0, 2];
Board=[|0,3,0,0,4,1|0,0,0,3,0,0|2,4,1,0,0,3|0,0,2,4,3,0|3,0,4,0,2,0|0,1,3,0,0,2|]